12
-1 32 69 54 21 89 76 29 68 92 25 55
34 -1 41 12 45 60 18 53 39 23 79 96
87 29 -1 37 66 49 93 95 97 16 86 5
88 82 55 -1 14 1 16 71 86 63 13 55
85 53 12 8 -1 45 13 56 21 58 46 82
81 44 96 22 29 -1 35 50 73 66 44 59
92 39 53 24 54 10 -1 49 86 13 74 22
68 18 87 5 58 91 2 -1 77 14 14 24
34 74 72 59 33 70 87 97 -1 77 73 70
63 68 92 85 2 80 13 27 2 -1 27 25
43 24 23 72 61 81 3 32 5 93 -1 31
92 42 22 86 64 87 60 13 74 70 70 -1